
******************************************************************************
This program contains Ipopt, a library for large-scale nonlinear optimization.
 Ipopt is released as open source code under the Eclipse Public License (EPL).
         For more information visit http://projects.coin-or.org/Ipopt
******************************************************************************

This is Ipopt version 3.12.6, running with linear solver ma57.

Number of nonzeros in equality constraint Jacobian...:    12903
Number of nonzeros in inequality constraint Jacobian.:     2092
Number of nonzeros in Lagrangian Hessian.............:      239

Total number of variables............................:     1510
                     variables with only lower bounds:        0
                variables with lower and upper bounds:      387
                     variables with only upper bounds:       30
Total number of equality constraints.................:     1196
Total number of inequality constraints...............:     1024
        inequality constraints with only lower bounds:        0
   inequality constraints with lower and upper bounds:        0
        inequality constraints with only upper bounds:     1024

iter    objective    inf_pr   inf_du lg(mu)  ||d||  lg(rg) alpha_du alpha_pr  ls
   0  1.5956042e+01 1.76e+03 1.00e+02  -1.0 0.00e+00    -  0.00e+00 0.00e+00   0
Reallocating memory for MA57: lfact (212499)
   1 -7.9404599e+03 1.76e+03 1.00e+02  -1.0 1.75e+03    -  1.26e-04 2.61e-04f  1
   2 -3.1451268e+04 1.76e+03 9.99e+01  -1.0 1.81e+03    -  2.63e-04 7.74e-04f  1
   3 -1.0144779e+05 1.76e+03 9.97e+01  -1.0 1.83e+03    -  4.69e-04 2.31e-03f  1
   4 -1.5000509e+05 1.75e+03 9.95e+01  -1.0 1.85e+03    -  1.52e-03 1.61e-03f  1
   5 -3.6808581e+05 1.74e+03 9.88e+01  -1.0 1.86e+03    -  3.37e-03 7.28e-03f  1
   6 -4.4217676e+05 1.74e+03 9.85e+01  -1.0 1.85e+03    -  4.19e-03 2.50e-03f  1
   7 -5.5603549e+05 1.73e+03 9.82e+01  -1.0 1.84e+03    -  3.38e-03 3.87e-03f  1
   8 -6.2970357e+05 1.73e+03 9.79e+01  -1.0 1.84e+03    -  3.70e-03 2.52e-03f  1
   9 -7.8126659e+05 1.72e+03 9.74e+01  -1.0 1.83e+03    -  5.02e-03 5.22e-03f  1
iter    objective    inf_pr   inf_du lg(mu)  ||d||  lg(rg) alpha_du alpha_pr  ls
  10 -1.0819244e+06 1.70e+03 9.64e+01  -1.0 1.82e+03    -  9.14e-03 1.05e-02f  1
  11 -1.7912521e+06 1.66e+03 9.40e+01  -1.0 1.81e+03    -  8.39e-03 2.55e-02f  1
  12 -2.4356779e+06 1.61e+03 9.17e+01  -1.0 1.75e+03    -  1.40e-02 2.44e-02f  1
  13 -2.9092401e+06 1.58e+03 9.00e+01  -1.0 1.68e+03    -  7.54e-03 1.88e-02f  1
  14 -3.3755820e+06 1.55e+03 8.83e+01  -1.0 1.64e+03    -  1.17e-02 1.92e-02f  1
  15 -3.7647613e+06 1.53e+03 8.68e+01  -1.0 1.58e+03    -  5.26e-03 1.67e-02f  1
  16 -3.7850187e+06 1.53e+03 8.67e+01  -1.0 1.48e+03    -  2.78e-03 8.92e-04f  1
  17 -3.8526247e+06 1.52e+03 8.65e+01  -1.0 1.36e+03    -  5.45e-04 3.00e-03f  1
  18 -3.8605062e+06 1.52e+03 8.64e+01  -1.0 1.44e+03    -  1.98e-03 3.49e-04f  1
  19 -3.8904488e+06 1.52e+03 8.63e+01  -1.0 1.36e+03    -  1.32e-03 1.33e-03f  1
iter    objective    inf_pr   inf_du lg(mu)  ||d||  lg(rg) alpha_du alpha_pr  ls
  20 -3.9525811e+06 1.52e+03 8.61e+01  -1.0 1.37e+03    -  1.85e-03 2.78e-03f  1
  21 -3.9678615e+06 1.51e+03 8.60e+01  -1.0 1.40e+03    -  1.71e-03 6.85e-04f  1
  22 -4.0142285e+06 1.51e+03 8.58e+01  -1.0 1.31e+03    -  1.72e-03 2.10e-03f  1
  23 -4.0412495e+06 1.51e+03 8.57e+01  -1.0 1.36e+03    -  2.18e-03 1.22e-03f  1
  24 -4.1250513e+06 1.50e+03 8.54e+01  -1.0 1.34e+03    -  1.42e-03 3.82e-03f  1
  25 -4.1401851e+06 1.50e+03 8.53e+01  -1.0 1.33e+03    -  1.81e-03 6.93e-04f  1
  26 -4.2725575e+06 1.49e+03 8.48e+01  -1.0 1.23e+03    -  1.96e-03 6.15e-03f  1
  27 -4.3601479e+06 1.49e+03 8.45e+01  -1.0 1.22e+03    -  2.99e-03 4.14e-03f  1
  28 -4.4773641e+06 1.48e+03 8.40e+01  -1.0 1.22e+03    -  2.99e-03 5.61e-03f  1
  29 -4.6247328e+06 1.47e+03 8.34e+01  -1.0 1.21e+03    -  3.83e-03 7.16e-03f  1
iter    objective    inf_pr   inf_du lg(mu)  ||d||  lg(rg) alpha_du alpha_pr  ls
  30 -5.0732002e+06 1.44e+03 8.16e+01  -1.0 1.20e+03    -  7.25e-03 2.23e-02f  1
  31 -5.5566121e+06 1.40e+03 7.95e+01  -1.0 1.18e+03    -  1.82e-02 2.51e-02f  1
  32 -6.4411432e+06 1.33e+03 7.57e+01  -1.0 1.15e+03    -  1.73e-03 4.87e-02f  1
  33 -6.5457475e+06 1.32e+03 7.52e+01  -1.0 1.20e+03    -  2.70e-02 6.14e-03f  1
  34 -7.0261347e+06 1.28e+03 7.30e+01  -1.0 1.08e+03    -  8.56e-03 2.92e-02f  1
  35 -7.4134240e+06 1.25e+03 7.12e+01  -1.0 1.06e+03    -  7.48e-03 2.46e-02f  1
  36 -7.4400517e+06 1.25e+03 7.11e+01  -1.0 1.03e+03    -  1.56e-02 1.77e-03f  1
  37 -7.7032787e+06 1.23e+03 6.98e+01  -1.0 1.03e+03    -  2.57e-02 1.76e-02f  1
  38 -8.0927089e+06 1.20e+03 9.79e+01  -1.0 1.03e+03    -  6.03e-02 2.73e-02f  1
  39 -8.1508127e+06 1.19e+03 1.05e+02  -1.0 1.02e+03    -  1.00e-02 4.22e-03f  1
iter    objective    inf_pr   inf_du lg(mu)  ||d||  lg(rg) alpha_du alpha_pr  ls
  40 -9.7894941e+06 1.04e+03 5.95e+01  -1.0 1.01e+03    -  7.85e-02 1.28e-01f  1
  41 -1.0408874e+07 9.74e+02 6.30e+01  -1.0 9.18e+02    -  6.39e-03 6.09e-02f  1
  42 -1.0997046e+07 9.11e+02 8.40e+01  -1.0 8.80e+02    -  2.61e-02 6.54e-02f  1
  43 -1.1205778e+07 8.87e+02 8.76e+01  -1.0 8.74e+02    -  1.53e-02 2.59e-02f  1
  44 -1.1416926e+07 8.62e+02 7.44e+01  -1.0 8.76e+02    -  4.87e-02 2.76e-02f  1
  45 -1.1434733e+07 8.60e+02 7.47e+01  -1.0 8.20e+02    -  1.13e-02 2.43e-03f  1
  46 -1.1806693e+07 8.15e+02 7.07e+01  -1.0 8.53e+02    -  5.25e-02 5.21e-02f  1
  47 -1.1827911e+07 8.13e+02 6.91e+01  -1.0 8.08e+02    -  1.38e-02 3.22e-03f  1
  48 -1.2249279e+07 7.59e+02 7.14e+01  -1.0 8.38e+02    -  3.20e-02 6.62e-02f  1
  49 -1.2271625e+07 7.56e+02 7.02e+01  -1.0 7.70e+02    -  1.81e-02 3.90e-03f  1
iter    objective    inf_pr   inf_du lg(mu)  ||d||  lg(rg) alpha_du alpha_pr  ls
  50 -1.2743071e+07 6.91e+02 6.49e+01  -1.0 7.89e+02    -  7.88e-02 8.60e-02f  1
  51 -1.2813014e+07 6.81e+02 6.59e+01  -1.0 7.19e+02    -  4.64e-02 1.46e-02f  1
  52 -1.3158250e+07 6.29e+02 6.09e+01  -1.0 7.16e+02    -  7.70e-02 7.66e-02f  1
  53 -1.3414128e+07 5.87e+02 5.48e+01  -1.0 6.60e+02    -  5.68e-02 6.58e-02f  1
  54 -1.3733309e+07 5.32e+02 4.09e+01  -1.0 6.13e+02    -  6.12e-02 9.49e-02f  1
  55 -1.4043467e+07 4.72e+02 2.71e+01  -1.0 5.55e+02    -  7.22e-02 1.13e-01f  1
  56 -1.4286706e+07 4.19e+02 2.76e+01  -1.0 4.95e+02    -  7.55e-02 1.12e-01f  1
  57 -1.4472244e+07 3.74e+02 4.56e+01  -1.0 4.69e+02    -  7.83e-02 1.07e-01f  1
  58 -1.4614856e+07 3.36e+02 4.91e+01  -1.0 4.65e+02    -  7.62e-02 1.02e-01f  1
  59 -1.4725391e+07 3.04e+02 4.73e+01  -1.0 4.56e+02    -  7.38e-02 9.66e-02f  1
iter    objective    inf_pr   inf_du lg(mu)  ||d||  lg(rg) alpha_du alpha_pr  ls
  60 -1.4810351e+07 2.76e+02 5.31e+01  -1.0 4.42e+02    -  7.34e-02 9.01e-02f  1
  61 -1.4881711e+07 2.51e+02 5.88e+01  -1.0 4.25e+02    -  7.09e-02 9.08e-02f  1
  62 -1.4958001e+07 2.22e+02 8.90e+01  -1.0 4.07e+02    -  6.90e-02 1.18e-01f  1
  63 -1.5026275e+07 1.91e+02 1.31e+02  -1.0 3.83e+02    -  6.16e-02 1.36e-01f  1
  64 -1.5118334e+07 1.41e+02 1.73e+02  -1.0 3.76e+02    -  5.23e-02 2.62e-01f  1
  65 -1.5139285e+07 1.27e+02 1.56e+02  -1.0 3.26e+02    -  1.42e-01 9.82e-02f  1
  66 -1.5163883e+07 1.09e+02 1.34e+02  -1.0 3.19e+02    -  9.61e-02 1.42e-01f  1
  67 -1.5181966e+07 9.41e+01 1.16e+02  -1.0 2.87e+02    -  1.15e-01 1.39e-01f  1
  68 -1.5199584e+07 7.71e+01 9.46e+01  -1.0 2.59e+02    -  1.53e-01 1.81e-01f  1
  69 -1.5214241e+07 6.02e+01 7.39e+01  -1.0 2.31e+02    -  1.91e-01 2.19e-01f  1
iter    objective    inf_pr   inf_du lg(mu)  ||d||  lg(rg) alpha_du alpha_pr  ls
  70 -1.5225173e+07 4.47e+01 5.49e+01  -1.0 1.92e+02    -  3.01e-01 2.57e-01f  1
  71 -1.5229974e+07 3.67e+01 4.51e+01  -1.0 1.46e+02    -  2.36e-01 1.79e-01f  1
  72 -1.5232638e+07 3.18e+01 3.90e+01  -1.0 1.28e+02    -  1.91e-01 1.34e-01f  1
  73 -1.5237634e+07 2.07e+01 2.54e+01  -1.0 1.16e+02    -  2.00e-01 3.48e-01f  1
  74 -1.5240958e+07 9.88e+00 1.22e+01  -1.0 8.37e+01    -  1.26e-01 5.23e-01f  1
  75 -1.5242004e+07 4.47e+00 5.49e+00  -1.0 4.68e+01    -  6.06e-01 5.48e-01f  1
  76 -1.5242449e+07 1.15e+00 3.41e+00  -1.0 2.70e+01    -  9.88e-01 7.42e-01f  1
  77 -1.5242563e+07 3.88e-03 3.24e-02  -1.0 1.32e+01    -  9.90e-01 9.97e-01f  1
  78 -1.5242563e+07 1.42e-08 1.24e-02  -1.0 1.97e+00    -  9.90e-01 1.00e+00f  1
  79 -1.5242564e+07 9.82e-13 7.74e-04  -1.0 5.97e-01    -  9.98e-01 1.00e+00f  1
iter    objective    inf_pr   inf_du lg(mu)  ||d||  lg(rg) alpha_du alpha_pr  ls
  80 -1.5242754e+07 7.42e-12 5.91e+00  -2.5 1.80e+01    -  7.62e-01 6.08e-01f  1
  81 -1.5242848e+07 2.86e-09 8.07e+00  -2.5 1.22e+01    -  1.00e+00 6.95e-01f  1
Reallocating memory for MA57: lfact (241328)
  82 -1.5242882e+07 7.46e-10 4.35e+00  -2.5 6.22e+00    -  1.00e+00 7.39e-01f  1
  83 -1.5242892e+07 1.20e-12 6.17e-02  -2.5 1.31e+00    -  9.83e-01 1.00e+00f  1
  84 -1.5242893e+07 1.24e-12 2.83e-08  -2.5 3.02e-01    -  1.00e+00 1.00e+00f  1
  85 -1.5242898e+07 1.61e-12 3.32e-01  -3.8 7.28e-01    -  7.44e-01 6.89e-01f  1
  86 -1.5242900e+07 1.14e-12 3.40e-01  -3.8 4.27e-01    -  5.79e-01 6.96e-01f  1
Reallocating memory for MA57: lfact (267422)
  87 -1.5242901e+07 5.39e-12 1.01e+00  -3.8 4.22e-01    -  6.20e-01 1.00e+00f  1
  88 -1.5242901e+07 1.07e-12 1.50e-09  -3.8 2.06e-01    -  1.00e+00 1.00e+00f  1
  89 -1.5242901e+07 1.68e-11 2.83e-01  -5.7 4.27e-01    -  7.17e-01 8.96e-01f  1
iter    objective    inf_pr   inf_du lg(mu)  ||d||  lg(rg) alpha_du alpha_pr  ls
  90 -1.5242901e+07 1.35e-11 1.27e-04  -5.7 2.25e-01    -  1.00e+00 1.00e+00f  1
  91 -1.5242901e+07 2.27e-12 1.85e-11  -5.7 5.53e-02    -  1.00e+00 1.00e+00f  1
  92 -1.5242901e+07 1.55e-12 1.49e-03  -8.6 2.10e-02    -  9.89e-01 9.94e-01f  1
Reallocating memory for MA57: lfact (298278)
  93 -1.5242901e+07 1.02e-12 1.44e-01  -8.6 2.23e-03    -  8.58e-01 8.16e-01f  1
  94 -1.5242901e+07 1.11e-12 2.27e-13  -8.6 1.30e-03    -  1.00e+00 1.00e+00f  1
  95 -1.5242901e+07 9.35e-13 2.27e-13  -8.6 6.20e-04    -  1.00e+00 1.00e+00h  1
  96 -1.5242901e+07 1.16e-12 2.27e-13  -8.6 2.95e-04    -  1.00e+00 1.00e+00h  1

Number of Iterations....: 96

                                   (scaled)                 (unscaled)
Objective...............:  -2.1024691681456454e+06   -1.5242901469055930e+07
Dual infeasibility......:   2.2737367544323206e-13    1.6484591469634324e-12
Constraint violation....:   6.8212102632969618e-13    1.1555201240298629e-12
Complementarity.........:   8.5060910788649095e-09    6.1669160321770591e-08
Overall NLP error.......:   8.5060910788649095e-09    6.1669160321770591e-08


Number of objective function evaluations             = 97
Number of objective gradient evaluations             = 97
Number of equality constraint evaluations            = 97
Number of inequality constraint evaluations          = 97
Number of equality constraint Jacobian evaluations   = 97
Number of inequality constraint Jacobian evaluations = 97
Number of Lagrangian Hessian evaluations             = 96
Total CPU secs in IPOPT (w/o function evaluations)   =      0.783
Total CPU secs in NLP function evaluations           =      0.033

EXIT: Optimal Solution Found.
Note: The following floating-point exceptions are signalling: IEEE_UNDERFLOW_FLAG IEEE_DENORMAL

************************ CUTEst statistics ************************


 Package used            :  IPOPT
 Problem                 :  LEUVEN1   
 # variables             =            1530
 # constraints           =            2220
 # objective functions   =        0.1950000E+03
 # objective gradients   =        0.9800000E+02
 # objective Hessians    =        0.9700000E+02
 # Hessian-vector prdct  =        0.0000000E+00
 # constraints functions =        0.1960000E+03
 # constraints gradients =        0.9900000E+02
 # constraints Hessians  =        0.9700000E+02
 Exit code               =               0
 Final f                 =  -0.1524290E+08
 Set up time             =            0.05 seconds
 Solve time              =            1.02 seconds


******************************************************************

System Time =       0.8000000119 s.
